\ Model Cl_50_Ins_3.lp
\ LP format - for model browsing. Use MPS format to capture full model detail.
Maximize
 
Subject To
 obj1: y[0] = 0
 obj2: y[1] = 0
 obj1_Exp: - y[0] + 98 x[0] + 96 x[1] + 94 x[2] + 82 x[3] + 81 x[4]
   + 79 x[5] + 78 x[6] + 77 x[7] + 76 x[8] + 76 x[9] + 71 x[10] + 71 x[11]
   + 70 x[12] + 69 x[13] + 69 x[14] + 66 x[15] + 62 x[16] + 61 x[17]
   + 58 x[18] + 56 x[19] + 56 x[20] + 55 x[21] + 54 x[22] + 53 x[23]
   + 53 x[24] + 52 x[25] + 41 x[26] + 41 x[27] + 41 x[28] + 41 x[29]
   + 39 x[30] + 35 x[31] + 35 x[32] + 31 x[33] + 29 x[34] + 29 x[35]
   + 24 x[36] + 22 x[37] + 22 x[38] + 21 x[39] + 19 x[40] + 17 x[41]
   + 13 x[42] + 12 x[43] + 12 x[44] + 10 x[45] + 9 x[46] + 4 x[47]
   + 2 x[48] + x[49] = 0
 obj2_Exp: - y[1] + 85 x[0] + 29 x[1] + 34 x[2] + 19 x[3] + 2 x[4]
   + 48 x[5] + 24 x[6] + 37 x[7] + 59 x[8] + 47 x[9] + 31 x[10] + 35 x[11]
   + 33 x[12] + 80 x[13] + 6 x[14] + 71 x[15] + 32 x[16] + 77 x[17]
   + 70 x[18] + 96 x[19] + 5 x[20] + 17 x[21] + 45 x[22] + 74 x[23]
   + 84 x[24] + 19 x[25] + 74 x[26] + 4 x[27] + 51 x[28] + 71 x[29]
   + 55 x[30] + 99 x[31] + 16 x[32] + 15 x[33] + 73 x[34] + 20 x[35]
   + 87 x[36] + 54 x[37] + 95 x[38] + 5 x[39] + 61 x[40] + 66 x[41]
   + 14 x[42] + 33 x[43] + 63 x[44] + 89 x[45] + 14 x[46] + 88 x[47]
   + 64 x[48] + 63 x[49] = 0
 Budget: 108 x[0] + 106 x[1] + 104 x[2] + 92 x[3] + 91 x[4] + 89 x[5]
   + 88 x[6] + 87 x[7] + 86 x[8] + 86 x[9] + 81 x[10] + 81 x[11] + 80 x[12]
   + 79 x[13] + 79 x[14] + 76 x[15] + 72 x[16] + 71 x[17] + 68 x[18]
   + 66 x[19] + 66 x[20] + 65 x[21] + 64 x[22] + 63 x[23] + 63 x[24]
   + 62 x[25] + 51 x[26] + 51 x[27] + 51 x[28] + 51 x[29] + 49 x[30]
   + 45 x[31] + 45 x[32] + 41 x[33] + 39 x[34] + 39 x[35] + 34 x[36]
   + 32 x[37] + 32 x[38] + 31 x[39] + 29 x[40] + 27 x[41] + 23 x[42]
   + 22 x[43] + 22 x[44] + 20 x[45] + 19 x[46] + 14 x[47] + 12 x[48]
   + 11 x[49] <= 808
Bounds
Binaries
 x[0] x[1] x[2] x[3] x[4] x[5] x[6] x[7] x[8] x[9] x[10] x[11] x[12] x[13]
 x[14] x[15] x[16] x[17] x[18] x[19] x[20] x[21] x[22] x[23] x[24] x[25]
 x[26] x[27] x[28] x[29] x[30] x[31] x[32] x[33] x[34] x[35] x[36] x[37]
 x[38] x[39] x[40] x[41] x[42] x[43] x[44] x[45] x[46] x[47] x[48] x[49]
Generals
 y[0] y[1]
End
